<number of tasks>
250

<cycle time>
1000

<order strength>
0.596


<task times>
1 457
2 636
3 573
4 564
5 687
6 443
7 444
8 541
9 423
10 514
11 479
12 597
13 357
14 651
15 311
16 527
17 597
18 407
19 604
20 493
21 359
22 397
23 665
24 566
25 697
26 300
27 494
28 582
29 457
30 482
31 543
32 640
33 266
34 582
35 339
36 567
37 500
38 517
39 586
40 620
41 705
42 566
43 507
44 654
45 457
46 583
47 525
48 589
49 518
50 645
51 530
52 404
53 652
54 506
55 591
56 288
57 471
58 620
59 337
60 369
61 496
62 434
63 488
64 584
65 465
66 618
67 519
68 435
69 671
70 687
71 537
72 686
73 541
74 636
75 517
76 301
77 574
78 448
79 624
80 678
81 664
82 428
83 320
84 604
85 602
86 563
87 769
88 578
89 355
90 744
91 508
92 377
93 361
94 501
95 423
96 485
97 346
98 378
99 567
100 539
101 317
102 442
103 715
104 484
105 499
106 622
107 551
108 504
109 354
110 521
111 576
112 388
113 511
114 615
115 477
116 467
117 425
118 422
119 558
120 337
121 446
122 246
123 649
124 433
125 517
126 348
127 281
128 478
129 434
130 709
131 612
132 457
133 540
134 434
135 424
136 478
137 467
138 428
139 309
140 420
141 382
142 597
143 565
144 368
145 583
146 514
147 484
148 774
149 477
150 490
151 612
152 416
153 325
154 383
155 558
156 438
157 621
158 450
159 551
160 538
161 565
162 494
163 454
164 418
165 380
166 571
167 556
168 642
169 405
170 494
171 252
172 477
173 409
174 440
175 430
176 343
177 757
178 222
179 425
180 520
181 614
182 470
183 420
184 285
185 477
186 402
187 352
188 570
189 540
190 582
191 263
192 297
193 421
194 462
195 524
196 591
197 432
198 591
199 421
200 603
201 642
202 551
203 579
204 408
205 740
206 588
207 636
208 593
209 394
210 437
211 461
212 573
213 488
214 284
215 639
216 407
217 499
218 433
219 545
220 534
221 558
222 500
223 537
224 713
225 422
226 550
227 527
228 344
229 699
230 641
231 428
232 470
233 430
234 502
235 524
236 581
237 606
238 558
239 487
240 531
241 495
242 321
243 793
244 482
245 710
246 613
247 465
248 326
249 607
250 579

<precedence relations>
1,18
2,18
3,18
4,155
5,15
5,42
5,67
5,75
6,8
6,12
6,13
6,14
7,9
7,10
7,11
7,14
7,16
7,17
8,18
9,18
10,18
11,18
12,18
13,18
14,116
15,90
16,202
17,19
17,20
17,21
17,22
17,23
17,24
17,25
17,26
17,27
18,28
18,29
18,30
18,31
18,32
18,33
18,34
18,35
18,42
19,116
20,225
21,76
22,52
23,189
24,182
25,36
25,38
26,90
26,102
26,103
27,36
27,37
27,38
27,39
27,53
27,81
28,225
29,90
30,52
31,80
31,81
31,103
32,39
32,43
32,45
32,46
32,48
33,40
33,72
33,114
34,39
34,44
34,47
35,41
35,49
36,241
37,105
38,42
38,87
39,116
40,241
41,155
42,76
43,52
44,52
45,52
46,52
47,189
48,118
49,50
49,51
49,53
49,54
49,55
50,201
51,201
52,58
52,59
52,60
52,61
52,62
52,63
52,64
52,65
52,66
53,118
54,57
55,56
55,67
55,68
55,79
56,90
57,155
58,70
58,103
59,72
60,113
61,91
61,102
61,137
62,91
63,87
64,81
64,102
65,69
65,73
66,74
67,81
68,71
68,131
68,132
69,76
70,76
71,189
72,91
72,96
72,142
73,75
73,78
73,92
74,77
74,116
75,90
76,80
76,82
76,83
76,84
76,85
76,86
77,189
78,79
78,81
78,87
79,241
80,90
81,90
82,110
83,88
83,89
83,90
84,88
84,89
84,102
85,157
85,175
86,92
87,88
87,89
87,90
87,91
87,93
88,116
89,225
90,94
90,96
90,97
90,98
90,99
90,100
90,101
90,104
90,105
91,155
92,94
93,94
93,95
93,102
93,103
93,120
94,116
95,225
96,241
97,109
98,107
99,130
99,139
99,149
99,150
99,154
99,171
99,173
100,108
101,176
101,199
102,182
103,107
104,106
104,110
105,132
105,140
106,118
107,118
108,111
108,113
108,114
109,112
109,115
110,145
110,151
110,152
110,153
110,154
111,116
112,225
113,118
114,116
114,120
114,130
114,135
115,116
115,117
115,119
116,121
116,122
116,123
116,124
117,155
118,125
118,126
118,127
118,128
118,129
118,130
118,133
119,125
119,130
119,186
120,150
121,132
121,136
121,137
121,142
121,143
121,147
122,134
122,138
122,139
123,133
123,200
125,202
126,148
126,152
127,131
127,137
128,131
128,156
129,134
129,135
130,132
130,163
130,176
131,155
132,202
133,189
134,140
135,138
135,187
136,144
137,139
137,181
137,182
138,189
140,141
140,142
140,143
140,144
140,145
141,202
142,151
142,153
142,154
142,169
142,183
143,148
143,149
143,152
145,146
145,147
145,150
146,155
147,155
148,189
149,182
150,156
150,157
150,185
151,176
153,165
153,182
155,158
155,159
155,160
155,161
155,162
155,164
156,202
157,163
157,179
158,250
159,165
159,230
160,186
161,167
162,169
164,166
164,168
164,171
165,225
166,182
167,170
167,172
168,173
169,171
169,174
170,202
171,189
172,200
173,175
173,177
173,178
174,176
175,182
176,179
176,180
176,184
176,185
177,181
178,179
178,183
179,201
180,189
181,189
182,187
182,190
182,191
182,192
182,193
182,194
182,195
182,196
182,197
182,198
182,199
183,185
183,186
183,188
183,199
184,187
185,241
186,201
187,202
188,202
189,203
189,204
189,205
189,206
189,207
191,200
192,208
195,250
196,225
198,242
200,225
201,210
201,211
201,212
201,213
201,214
201,215
201,216
201,217
201,218
202,219
202,220
202,221
202,222
202,223
202,230
203,209
204,229
205,224
209,225
210,230
211,227
211,229
212,228
214,226
215,242
216,242
219,227
221,229
221,249
223,225
223,227
225,231
225,232
225,233
225,234
225,235
225,236
225,237
225,238
225,239
225,240
225,242
226,241
230,249
236,249
241,243
241,244
241,245
241,246
241,247
241,248
242,250

<end>
